/*********************************************
 * OPL 22.1.1.0 Data
 * Author: marcos
 * Creation Date: Dec 26, 2023 at 6:13:08 PM
 *********************************************/
jobs = 5;
machines = 5; 

processingTime = [
	[80, 41, 66, 27, 93],
	[94, 57, 63, 16, 14],
	[87, 29, 84, 32, 8],
	[63, 6, 10, 42, 70],
	[18, 70, 96, 69, 23]
];

deadline = [334, 334, 334, 334, 334];